Printing Adjacency Matrix 
0  0  0  1  0  0  0  0  0  1  0  0  0  0  0  1  1  0  0  
0  0  0  1  1  1  0  0  0  0  0  0  0  0  0  0  0  0  0  
0  0  0  1  0  1  0  0  1  0  0  1  0  0  0  0  0  0  0  
1  1  1  0  0  0  0  1  1  1  1  0  0  0  1  1  0  0  0  
0  1  0  0  0  1  1  0  0  0  0  0  1  1  0  0  0  1  0  
0  1  1  0  1  0  0  0  0  0  0  1  0  1  0  0  0  0  1  
0  0  0  0  1  0  0  0  0  0  0  0  1  0  0  0  0  1  0  
0  0  0  1  0  0  0  0  0  0  1  0  0  0  0  0  0  0  0  
0  0  1  1  0  0  0  0  0  0  0  1  0  0  0  0  0  0  0  
1  0  0  1  0  0  0  0  0  0  0  0  0  0  0  1  0  0  0  
0  0  0  1  0  0  0  1  0  0  0  0  0  0  0  0  0  0  0  
0  0  1  0  0  1  0  0  1  0  0  0  0  0  0  0  0  0  0  
0  0  0  0  1  0  1  0  0  0  0  0  0  1  0  0  0  0  0  
0  0  0  0  1  1  0  0  0  0  0  0  1  0  0  0  0  0  0  
0  0  0  1  0  0  0  0  0  0  0  0  0  0  0  0  0  0  0  
1  0  0  1  0  0  0  0  0  1  0  0  0  0  0  0  1  0  0  
1  0  0  0  0  0  0  0  0  0  0  0  0  0  0  1  0  0  0  
0  0  0  0  1  0  1  0  0  0  0  0  0  0  0  0  0  0  0  
0  0  0  0  0  1  0  0  0  0  0  0  0  0  0  0  0  0  0  
Printing Adjacency Matrix 
1  0  0  1  0  0  0  0  0  1  0  0  0  0  0  1  1  0  0  
0  0  0  1  1  1  0  0  0  0  0  0  0  0  0  0  0  0  0  
0  0  0  1  0  1  0  0  1  0  0  1  0  0  0  0  0  0  0  
1  1  1  0  0  0  0  1  1  1  1  0  0  0  1  1  0  0  0  
0  1  0  0  0  1  1  0  0  0  0  0  1  1  0  0  0  1  0  
0  1  1  0  1  0  0  0  0  0  0  1  0  1  0  0  0  0  1  
0  0  0  0  1  0  0  0  0  0  0  0  1  0  0  0  0  1  0  
0  0  0  1  0  0  0  0  0  0  1  0  0  0  0  0  0  0  0  
0  0  1  1  0  0  0  0  0  0  0  1  0  0  0  0  0  0  0  
1  0  0  1  0  0  0  0  0  0  0  0  0  0  0  1  0  0  0  
0  0  0  1  0  0  0  1  0  0  0  0  0  0  0  0  0  0  0  
0  0  1  0  0  1  0  0  1  0  0  0  0  0  0  0  0  0  0  
0  0  0  0  1  0  1  0  0  0  0  0  0  1  0  0  0  0  0  
0  0  0  0  1  1  0  0  0  0  0  0  1  0  0  0  0  0  0  
0  0  0  1  0  0  0  0  0  0  0  0  0  0  0  0  0  0  0  
1  0  0  1  0  0  0  0  0  1  0  0  0  0  0  0  1  0  0  
1  0  0  0  0  0  0  0  0  0  0  0  0  0  0  1  0  0  0  
0  0  0  0  1  0  1  0  0  0  0  0  0  0  0  0  0  0  0  
0  0  0  0  0  1  0  0  0  0  0  0  0  0  0  0  0  0  0  
Printing Adjacency Matrix 
1  0  0  1  0  0  0  0  0  1  0  0  0  0  0  1  1  0  0  
0  1  0  1  1  1  0  0  0  0  0  0  0  0  0  0  0  0  0  
0  0  0  1  0  1  0  0  1  0  0  1  0  0  0  0  0  0  0  
1  1  1  0  0  0  0  1  1  1  1  0  0  0  1  1  0  0  0  
0  1  0  0  0  1  1  0  0  0  0  0  1  1  0  0  0  1  0  
0  1  1  0  1  0  0  0  0  0  0  1  0  1  0  0  0  0  1  
0  0  0  0  1  0  0  0  0  0  0  0  1  0  0  0  0  1  0  
0  0  0  1  0  0  0  0  0  0  1  0  0  0  0  0  0  0  0  
0  0  1  1  0  0  0  0  0  0  0  1  0  0  0  0  0  0  0  
1  0  0  1  0  0  0  0  0  0  0  0  0  0  0  1  0  0  0  
0  0  0  1  0  0  0  1  0  0  0  0  0  0  0  0  0  0  0  
0  0  1  0  0  1  0  0  1  0  0  0  0  0  0  0  0  0  0  
0  0  0  0  1  0  1  0  0  0  0  0  0  1  0  0  0  0  0  
0  0  0  0  1  1  0  0  0  0  0  0  1  0  0  0  0  0  0  
0  0  0  1  0  0  0  0  0  0  0  0  0  0  0  0  0  0  0  
1  0  0  1  0  0  0  0  0  1  0  0  0  0  0  0  1  0  0  
1  0  0  0  0  0  0  0  0  0  0  0  0  0  0  1  0  0  0  
0  0  0  0  1  0  1  0  0  0  0  0  0  0  0  0  0  0  0  
0  0  0  0  0  1  0  0  0  0  0  0  0  0  0  0  0  0  0  
Printing Adjacency Matrix 
1  0  0  1  0  0  0  0  0  1  0  0  0  0  0  1  1  0  0  
0  1  0  1  1  1  0  0  0  0  0  0  0  0  0  0  0  0  0  
0  0  1  1  0  1  0  0  1  0  0  1  0  0  0  0  0  0  0  
1  1  1  0  0  0  0  1  1  1  1  0  0  0  1  1  0  0  0  
0  1  0  0  0  1  1  0  0  0  0  0  1  1  0  0  0  1  0  
0  1  1  0  1  0  0  0  0  0  0  1  0  1  0  0  0  0  1  
0  0  0  0  1  0  0  0  0  0  0  0  1  0  0  0  0  1  0  
0  0  0  1  0  0  0  0  0  0  1  0  0  0  0  0  0  0  0  
0  0  1  1  0  0  0  0  0  0  0  1  0  0  0  0  0  0  0  
1  0  0  1  0  0  0  0  0  0  0  0  0  0  0  1  0  0  0  
0  0  0  1  0  0  0  1  0  0  0  0  0  0  0  0  0  0  0  
0  0  1  0  0  1  0  0  1  0  0  0  0  0  0  0  0  0  0  
0  0  0  0  1  0  1  0  0  0  0  0  0  1  0  0  0  0  0  
0  0  0  0  1  1  0  0  0  0  0  0  1  0  0  0  0  0  0  
0  0  0  1  0  0  0  0  0  0  0  0  0  0  0  0  0  0  0  
1  0  0  1  0  0  0  0  0  1  0  0  0  0  0  0  1  0  0  
1  0  0  0  0  0  0  0  0  0  0  0  0  0  0  1  0  0  0  
0  0  0  0  1  0  1  0  0  0  0  0  0  0  0  0  0  0  0  
0  0  0  0  0  1  0  0  0  0  0  0  0  0  0  0  0  0  0  
Printing Adjacency Matrix 
1  0  0  1  0  0  0  0  0  1  0  0  0  0  0  1  1  0  0  
0  1  0  1  1  1  0  0  0  0  0  0  0  0  0  0  0  0  0  
0  0  1  1  0  1  0  0  1  0  0  1  0  0  0  0  0  0  0  
1  1  1  2  0  0  0  1  1  1  1  0  0  0  1  1  0  0  0  
0  1  0  0  0  1  1  0  0  0  0  0  1  1  0  0  0  1  0  
0  1  1  0  1  0  0  0  0  0  0  1  0  1  0  0  0  0  1  
0  0  0  0  1  0  0  0  0  0  0  0  1  0  0  0  0  1  0  
0  0  0  1  0  0  0  0  0  0  1  0  0  0  0  0  0  0  0  
0  0  1  1  0  0  0  0  0  0  0  1  0  0  0  0  0  0  0  
1  0  0  1  0  0  0  0  0  0  0  0  0  0  0  1  0  0  0  
0  0  0  1  0  0  0  1  0  0  0  0  0  0  0  0  0  0  0  
0  0  1  0  0  1  0  0  1  0  0  0  0  0  0  0  0  0  0  
0  0  0  0  1  0  1  0  0  0  0  0  0  1  0  0  0  0  0  
0  0  0  0  1  1  0  0  0  0  0  0  1  0  0  0  0  0  0  
0  0  0  1  0  0  0  0  0  0  0  0  0  0  0  0  0  0  0  
1  0  0  1  0  0  0  0  0  1  0  0  0  0  0  0  1  0  0  
1  0  0  0  0  0  0  0  0  0  0  0  0  0  0  1  0  0  0  
0  0  0  0  1  0  1  0  0  0  0  0  0  0  0  0  0  0  0  
0  0  0  0  0  1  0  0  0  0  0  0  0  0  0  0  0  0  0  
Printing Adjacency Matrix 
1  0  0  1  0  0  0  0  0  1  0  0  0  0  0  1  1  0  0  
0  1  0  1  1  1  0  0  0  0  0  0  0  0  0  0  0  0  0  
0  0  1  1  0  1  0  0  1  0  0  1  0  0  0  0  0  0  0  
1  1  1  2  0  0  0  1  1  1  1  0  0  0  1  1  0  0  0  
0  1  0  0  2  1  1  0  0  0  0  0  1  1  0  0  0  1  0  
0  1  1  0  1  0  0  0  0  0  0  1  0  1  0  0  0  0  1  
0  0  0  0  1  0  0  0  0  0  0  0  1  0  0  0  0  1  0  
0  0  0  1  0  0  0  0  0  0  1  0  0  0  0  0  0  0  0  
0  0  1  1  0  0  0  0  0  0  0  1  0  0  0  0  0  0  0  
1  0  0  1  0  0  0  0  0  0  0  0  0  0  0  1  0  0  0  
0  0  0  1  0  0  0  1  0  0  0  0  0  0  0  0  0  0  0  
0  0  1  0  0  1  0  0  1  0  0  0  0  0  0  0  0  0  0  
0  0  0  0  1  0  1  0  0  0  0  0  0  1  0  0  0  0  0  
0  0  0  0  1  1  0  0  0  0  0  0  1  0  0  0  0  0  0  
0  0  0  1  0  0  0  0  0  0  0  0  0  0  0  0  0  0  0  
1  0  0  1  0  0  0  0  0  1  0  0  0  0  0  0  1  0  0  
1  0  0  0  0  0  0  0  0  0  0  0  0  0  0  1  0  0  0  
0  0  0  0  1  0  1  0  0  0  0  0  0  0  0  0  0  0  0  
0  0  0  0  0  1  0  0  0  0  0  0  0  0  0  0  0  0  0  
Printing Adjacency Matrix 
1  0  0  1  0  0  0  0  0  1  0  0  0  0  0  1  1  0  0  
0  1  0  1  1  1  0  0  0  0  0  0  0  0  0  0  0  0  0  
0  0  1  1  0  1  0  0  1  0  0  1  0  0  0  0  0  0  0  
1  1  1  2  0  0  0  1  1  1  1  0  0  0  1  1  0  0  0  
0  1  0  0  2  1  1  0  0  0  0  0  1  1  0  0  0  1  0  
0  1  1  0  1  3  0  0  0  0  0  1  0  1  0  0  0  0  1  
0  0  0  0  1  0  0  0  0  0  0  0  1  0  0  0  0  1  0  
0  0  0  1  0  0  0  0  0  0  1  0  0  0  0  0  0  0  0  
0  0  1  1  0  0  0  0  0  0  0  1  0  0  0  0  0  0  0  
1  0  0  1  0  0  0  0  0  0  0  0  0  0  0  1  0  0  0  
0  0  0  1  0  0  0  1  0  0  0  0  0  0  0  0  0  0  0  
0  0  1  0  0  1  0  0  1  0  0  0  0  0  0  0  0  0  0  
0  0  0  0  1  0  1  0  0  0  0  0  0  1  0  0  0  0  0  
0  0  0  0  1  1  0  0  0  0  0  0  1  0  0  0  0  0  0  
0  0  0  1  0  0  0  0  0  0  0  0  0  0  0  0  0  0  0  
1  0  0  1  0  0  0  0  0  1  0  0  0  0  0  0  1  0  0  
1  0  0  0  0  0  0  0  0  0  0  0  0  0  0  1  0  0  0  
0  0  0  0  1  0  1  0  0  0  0  0  0  0  0  0  0  0  0  
0  0  0  0  0  1  0  0  0  0  0  0  0  0  0  0  0  0  0  
Printing Adjacency Matrix 
1  0  0  1  0  0  0  0  0  1  0  0  0  0  0  1  1  0  0  
0  1  0  1  1  1  0  0  0  0  0  0  0  0  0  0  0  0  0  
0  0  1  1  0  1  0  0  1  0  0  1  0  0  0  0  0  0  0  
1  1  1  2  0  0  0  1  1  1  1  0  0  0  1  1  0  0  0  
0  1  0  0  2  1  1  0  0  0  0  0  1  1  0  0  0  1  0  
0  1  1  0  1  3  0  0  0  0  0  1  0  1  0  0  0  0  1  
0  0  0  0  1  0  3  0  0  0  0  0  1  0  0  0  0  1  0  
0  0  0  1  0  0  0  0  0  0  1  0  0  0  0  0  0  0  0  
0  0  1  1  0  0  0  0  0  0  0  1  0  0  0  0  0  0  0  
1  0  0  1  0  0  0  0  0  0  0  0  0  0  0  1  0  0  0  
0  0  0  1  0  0  0  1  0  0  0  0  0  0  0  0  0  0  0  
0  0  1  0  0  1  0  0  1  0  0  0  0  0  0  0  0  0  0  
0  0  0  0  1  0  1  0  0  0  0  0  0  1  0  0  0  0  0  
0  0  0  0  1  1  0  0  0  0  0  0  1  0  0  0  0  0  0  
0  0  0  1  0  0  0  0  0  0  0  0  0  0  0  0  0  0  0  
1  0  0  1  0  0  0  0  0  1  0  0  0  0  0  0  1  0  0  
1  0  0  0  0  0  0  0  0  0  0  0  0  0  0  1  0  0  0  
0  0  0  0  1  0  1  0  0  0  0  0  0  0  0  0  0  0  0  
0  0  0  0  0  1  0  0  0  0  0  0  0  0  0  0  0  0  0  
Printing Adjacency Matrix 
1  0  0  1  0  0  0  0  0  1  0  0  0  0  0  1  1  0  0  
0  1  0  1  1  1  0  0  0  0  0  0  0  0  0  0  0  0  0  
0  0  1  1  0  1  0  0  1  0  0  1  0  0  0  0  0  0  0  
1  1  1  2  0  0  0  1  1  1  1  0  0  0  1  1  0  0  0  
0  1  0  0  2  1  1  0  0  0  0  0  1  1  0  0  0  1  0  
0  1  1  0  1  3  0  0  0  0  0  1  0  1  0  0  0  0  1  
0  0  0  0  1  0  3  0  0  0  0  0  1  0  0  0  0  1  0  
0  0  0  1  0  0  0  3  0  0  1  0  0  0  0  0  0  0  0  
0  0  1  1  0  0  0  0  0  0  0  1  0  0  0  0  0  0  0  
1  0  0  1  0  0  0  0  0  0  0  0  0  0  0  1  0  0  0  
0  0  0  1  0  0  0  1  0  0  0  0  0  0  0  0  0  0  0  
0  0  1  0  0  1  0  0  1  0  0  0  0  0  0  0  0  0  0  
0  0  0  0  1  0  1  0  0  0  0  0  0  1  0  0  0  0  0  
0  0  0  0  1  1  0  0  0  0  0  0  1  0  0  0  0  0  0  
0  0  0  1  0  0  0  0  0  0  0  0  0  0  0  0  0  0  0  
1  0  0  1  0  0  0  0  0  1  0  0  0  0  0  0  1  0  0  
1  0  0  0  0  0  0  0  0  0  0  0  0  0  0  1  0  0  0  
0  0  0  0  1  0  1  0  0  0  0  0  0  0  0  0  0  0  0  
0  0  0  0  0  1  0  0  0  0  0  0  0  0  0  0  0  0  0  
Printing Adjacency Matrix 
1  0  0  1  0  0  0  0  0  1  0  0  0  0  0  1  1  0  0  
0  1  0  1  1  1  0  0  0  0  0  0  0  0  0  0  0  0  0  
0  0  1  1  0  1  0  0  1  0  0  1  0  0  0  0  0  0  0  
1  1  1  2  0  0  0  1  1  1  1  0  0  0  1  1  0  0  0  
0  1  0  0  2  1  1  0  0  0  0  0  1  1  0  0  0  1  0  
0  1  1  0  1  3  0  0  0  0  0  1  0  1  0  0  0  0  1  
0  0  0  0  1  0  3  0  0  0  0  0  1  0  0  0  0  1  0  
0  0  0  1  0  0  0  3  0  0  1  0  0  0  0  0  0  0  0  
0  0  1  1  0  0  0  0  3  0  0  1  0  0  0  0  0  0  0  
1  0  0  1  0  0  0  0  0  0  0  0  0  0  0  1  0  0  0  
0  0  0  1  0  0  0  1  0  0  0  0  0  0  0  0  0  0  0  
0  0  1  0  0  1  0  0  1  0  0  0  0  0  0  0  0  0  0  
0  0  0  0  1  0  1  0  0  0  0  0  0  1  0  0  0  0  0  
0  0  0  0  1  1  0  0  0  0  0  0  1  0  0  0  0  0  0  
0  0  0  1  0  0  0  0  0  0  0  0  0  0  0  0  0  0  0  
1  0  0  1  0  0  0  0  0  1  0  0  0  0  0  0  1  0  0  
1  0  0  0  0  0  0  0  0  0  0  0  0  0  0  1  0  0  0  
0  0  0  0  1  0  1  0  0  0  0  0  0  0  0  0  0  0  0  
0  0  0  0  0  1  0  0  0  0  0  0  0  0  0  0  0  0  0  
Printing Adjacency Matrix 
1  0  0  1  0  0  0  0  0  1  0  0  0  0  0  1  1  0  0  
0  1  0  1  1  1  0  0  0  0  0  0  0  0  0  0  0  0  0  
0  0  1  1  0  1  0  0  1  0  0  1  0  0  0  0  0  0  0  
1  1  1  2  0  0  0  1  1  1  1  0  0  0  1  1  0  0  0  
0  1  0  0  2  1  1  0  0  0  0  0  1  1  0  0  0  1  0  
0  1  1  0  1  3  0  0  0  0  0  1  0  1  0  0  0  0  1  
0  0  0  0  1  0  3  0  0  0  0  0  1  0  0  0  0  1  0  
0  0  0  1  0  0  0  3  0  0  1  0  0  0  0  0  0  0  0  
0  0  1  1  0  0  0  0  3  0  0  1  0  0  0  0  0  0  0  
1  0  0  1  0  0  0  0  0  3  0  0  0  0  0  1  0  0  0  
0  0  0  1  0  0  0  1  0  0  0  0  0  0  0  0  0  0  0  
0  0  1  0  0  1  0  0  1  0  0  0  0  0  0  0  0  0  0  
0  0  0  0  1  0  1  0  0  0  0  0  0  1  0  0  0  0  0  
0  0  0  0  1  1  0  0  0  0  0  0  1  0  0  0  0  0  0  
0  0  0  1  0  0  0  0  0  0  0  0  0  0  0  0  0  0  0  
1  0  0  1  0  0  0  0  0  1  0  0  0  0  0  0  1  0  0  
1  0  0  0  0  0  0  0  0  0  0  0  0  0  0  1  0  0  0  
0  0  0  0  1  0  1  0  0  0  0  0  0  0  0  0  0  0  0  
0  0  0  0  0  1  0  0  0  0  0  0  0  0  0  0  0  0  0  
Printing Adjacency Matrix 
1  0  0  1  0  0  0  0  0  1  0  0  0  0  0  1  1  0  0  
0  1  0  1  1  1  0  0  0  0  0  0  0  0  0  0  0  0  0  
0  0  1  1  0  1  0  0  1  0  0  1  0  0  0  0  0  0  0  
1  1  1  2  0  0  0  1  1  1  1  0  0  0  1  1  0  0  0  
0  1  0  0  2  1  1  0  0  0  0  0  1  1  0  0  0  1  0  
0  1  1  0  1  3  0  0  0  0  0  1  0  1  0  0  0  0  1  
0  0  0  0  1  0  3  0  0  0  0  0  1  0  0  0  0  1  0  
0  0  0  1  0  0  0  3  0  0  1  0  0  0  0  0  0  0  0  
0  0  1  1  0  0  0  0  3  0  0  1  0  0  0  0  0  0  0  
1  0  0  1  0  0  0  0  0  3  0  0  0  0  0  1  0  0  0  
0  0  0  1  0  0  0  1  0  0  1  0  0  0  0  0  0  0  0  
0  0  1  0  0  1  0  0  1  0  0  0  0  0  0  0  0  0  0  
0  0  0  0  1  0  1  0  0  0  0  0  0  1  0  0  0  0  0  
0  0  0  0  1  1  0  0  0  0  0  0  1  0  0  0  0  0  0  
0  0  0  1  0  0  0  0  0  0  0  0  0  0  0  0  0  0  0  
1  0  0  1  0  0  0  0  0  1  0  0  0  0  0  0  1  0  0  
1  0  0  0  0  0  0  0  0  0  0  0  0  0  0  1  0  0  0  
0  0  0  0  1  0  1  0  0  0  0  0  0  0  0  0  0  0  0  
0  0  0  0  0  1  0  0  0  0  0  0  0  0  0  0  0  0  0  
Printing Adjacency Matrix 
1  0  0  1  0  0  0  0  0  1  0  0  0  0  0  1  1  0  0  
0  1  0  1  1  1  0  0  0  0  0  0  0  0  0  0  0  0  0  
0  0  1  1  0  1  0  0  1  0  0  1  0  0  0  0  0  0  0  
1  1  1  2  0  0  0  1  1  1  1  0  0  0  1  1  0  0  0  
0  1  0  0  2  1  1  0  0  0  0  0  1  1  0  0  0  1  0  
0  1  1  0  1  3  0  0  0  0  0  1  0  1  0  0  0  0  1  
0  0  0  0  1  0  3  0  0  0  0  0  1  0  0  0  0  1  0  
0  0  0  1  0  0  0  3  0  0  1  0  0  0  0  0  0  0  0  
0  0  1  1  0  0  0  0  3  0  0  1  0  0  0  0  0  0  0  
1  0  0  1  0  0  0  0  0  3  0  0  0  0  0  1  0  0  0  
0  0  0  1  0  0  0  1  0  0  1  0  0  0  0  0  0  0  0  
0  0  1  0  0  1  0  0  1  0  0  2  0  0  0  0  0  0  0  
0  0  0  0  1  0  1  0  0  0  0  0  0  1  0  0  0  0  0  
0  0  0  0  1  1  0  0  0  0  0  0  1  0  0  0  0  0  0  
0  0  0  1  0  0  0  0  0  0  0  0  0  0  0  0  0  0  0  
1  0  0  1  0  0  0  0  0  1  0  0  0  0  0  0  1  0  0  
1  0  0  0  0  0  0  0  0  0  0  0  0  0  0  1  0  0  0  
0  0  0  0  1  0  1  0  0  0  0  0  0  0  0  0  0  0  0  
0  0  0  0  0  1  0  0  0  0  0  0  0  0  0  0  0  0  0  
Printing Adjacency Matrix 
1  0  0  1  0  0  0  0  0  1  0  0  0  0  0  1  1  0  0  
0  1  0  1  1  1  0  0  0  0  0  0  0  0  0  0  0  0  0  
0  0  1  1  0  1  0  0  1  0  0  1  0  0  0  0  0  0  0  
1  1  1  2  0  0  0  1  1  1  1  0  0  0  1  1  0  0  0  
0  1  0  0  2  1  1  0  0  0  0  0  1  1  0  0  0  1  0  
0  1  1  0  1  3  0  0  0  0  0  1  0  1  0  0  0  0  1  
0  0  0  0  1  0  3  0  0  0  0  0  1  0  0  0  0  1  0  
0  0  0  1  0  0  0  3  0  0  1  0  0  0  0  0  0  0  0  
0  0  1  1  0  0  0  0  3  0  0  1  0  0  0  0  0  0  0  
1  0  0  1  0  0  0  0  0  3  0  0  0  0  0  1  0  0  0  
0  0  0  1  0  0  0  1  0  0  1  0  0  0  0  0  0  0  0  
0  0  1  0  0  1  0  0  1  0  0  2  0  0  0  0  0  0  0  
0  0  0  0  1  0  1  0  0  0  0  0  1  1  0  0  0  0  0  
0  0  0  0  1  1  0  0  0  0  0  0  1  0  0  0  0  0  0  
0  0  0  1  0  0  0  0  0  0  0  0  0  0  0  0  0  0  0  
1  0  0  1  0  0  0  0  0  1  0  0  0  0  0  0  1  0  0  
1  0  0  0  0  0  0  0  0  0  0  0  0  0  0  1  0  0  0  
0  0  0  0  1  0  1  0  0  0  0  0  0  0  0  0  0  0  0  
0  0  0  0  0  1  0  0  0  0  0  0  0  0  0  0  0  0  0  
Printing Adjacency Matrix 
1  0  0  1  0  0  0  0  0  1  0  0  0  0  0  1  1  0  0  
0  1  0  1  1  1  0  0  0  0  0  0  0  0  0  0  0  0  0  
0  0  1  1  0  1  0  0  1  0  0  1  0  0  0  0  0  0  0  
1  1  1  2  0  0  0  1  1  1  1  0  0  0  1  1  0  0  0  
0  1  0  0  2  1  1  0  0  0  0  0  1  1  0  0  0  1  0  
0  1  1  0  1  3  0  0  0  0  0  1  0  1  0  0  0  0  1  
0  0  0  0  1  0  3  0  0  0  0  0  1  0  0  0  0  1  0  
0  0  0  1  0  0  0  3  0  0  1  0  0  0  0  0  0  0  0  
0  0  1  1  0  0  0  0  3  0  0  1  0  0  0  0  0  0  0  
1  0  0  1  0  0  0  0  0  3  0  0  0  0  0  1  0  0  0  
0  0  0  1  0  0  0  1  0  0  1  0  0  0  0  0  0  0  0  
0  0  1  0  0  1  0  0  1  0  0  2  0  0  0  0  0  0  0  
0  0  0  0  1  0  1  0  0  0  0  0  1  1  0  0  0  0  0  
0  0  0  0  1  1  0  0  0  0  0  0  1  4  0  0  0  0  0  
0  0  0  1  0  0  0  0  0  0  0  0  0  0  0  0  0  0  0  
1  0  0  1  0  0  0  0  0  1  0  0  0  0  0  0  1  0  0  
1  0  0  0  0  0  0  0  0  0  0  0  0  0  0  1  0  0  0  
0  0  0  0  1  0  1  0  0  0  0  0  0  0  0  0  0  0  0  
0  0  0  0  0  1  0  0  0  0  0  0  0  0  0  0  0  0  0  
Printing Adjacency Matrix 
1  0  0  1  0  0  0  0  0  1  0  0  0  0  0  1  1  0  0  
0  1  0  1  1  1  0  0  0  0  0  0  0  0  0  0  0  0  0  
0  0  1  1  0  1  0  0  1  0  0  1  0  0  0  0  0  0  0  
1  1  1  2  0  0  0  1  1  1  1  0  0  0  1  1  0  0  0  
0  1  0  0  2  1  1  0  0  0  0  0  1  1  0  0  0  1  0  
0  1  1  0  1  3  0  0  0  0  0  1  0  1  0  0  0  0  1  
0  0  0  0  1  0  3  0  0  0  0  0  1  0  0  0  0  1  0  
0  0  0  1  0  0  0  3  0  0  1  0  0  0  0  0  0  0  0  
0  0  1  1  0  0  0  0  3  0  0  1  0  0  0  0  0  0  0  
1  0  0  1  0  0  0  0  0  3  0  0  0  0  0  1  0  0  0  
0  0  0  1  0  0  0  1  0  0  1  0  0  0  0  0  0  0  0  
0  0  1  0  0  1  0  0  1  0  0  2  0  0  0  0  0  0  0  
0  0  0  0  1  0  1  0  0  0  0  0  1  1  0  0  0  0  0  
0  0  0  0  1  1  0  0  0  0  0  0  1  4  0  0  0  0  0  
0  0  0  1  0  0  0  0  0  0  0  0  0  0  4  0  0  0  0  
1  0  0  1  0  0  0  0  0  1  0  0  0  0  0  0  1  0  0  
1  0  0  0  0  0  0  0  0  0  0  0  0  0  0  1  0  0  0  
0  0  0  0  1  0  1  0  0  0  0  0  0  0  0  0  0  0  0  
0  0  0  0  0  1  0  0  0  0  0  0  0  0  0  0  0  0  0  
Printing Adjacency Matrix 
1  0  0  1  0  0  0  0  0  1  0  0  0  0  0  1  1  0  0  
0  1  0  1  1  1  0  0  0  0  0  0  0  0  0  0  0  0  0  
0  0  1  1  0  1  0  0  1  0  0  1  0  0  0  0  0  0  0  
1  1  1  2  0  0  0  1  1  1  1  0  0  0  1  1  0  0  0  
0  1  0  0  2  1  1  0  0  0  0  0  1  1  0  0  0  1  0  
0  1  1  0  1  3  0  0  0  0  0  1  0  1  0  0  0  0  1  
0  0  0  0  1  0  3  0  0  0  0  0  1  0  0  0  0  1  0  
0  0  0  1  0  0  0  3  0  0  1  0  0  0  0  0  0  0  0  
0  0  1  1  0  0  0  0  3  0  0  1  0  0  0  0  0  0  0  
1  0  0  1  0  0  0  0  0  3  0  0  0  0  0  1  0  0  0  
0  0  0  1  0  0  0  1  0  0  1  0  0  0  0  0  0  0  0  
0  0  1  0  0  1  0  0  1  0  0  2  0  0  0  0  0  0  0  
0  0  0  0  1  0  1  0  0  0  0  0  1  1  0  0  0  0  0  
0  0  0  0  1  1  0  0  0  0  0  0  1  4  0  0  0  0  0  
0  0  0  1  0  0  0  0  0  0  0  0  0  0  4  0  0  0  0  
1  0  0  1  0  0  0  0  0  1  0  0  0  0  0  4  1  0  0  
1  0  0  0  0  0  0  0  0  0  0  0  0  0  0  1  0  0  0  
0  0  0  0  1  0  1  0  0  0  0  0  0  0  0  0  0  0  0  
0  0  0  0  0  1  0  0  0  0  0  0  0  0  0  0  0  0  0  
Printing Adjacency Matrix 
1  0  0  1  0  0  0  0  0  1  0  0  0  0  0  1  1  0  0  
0  1  0  1  1  1  0  0  0  0  0  0  0  0  0  0  0  0  0  
0  0  1  1  0  1  0  0  1  0  0  1  0  0  0  0  0  0  0  
1  1  1  2  0  0  0  1  1  1  1  0  0  0  1  1  0  0  0  
0  1  0  0  2  1  1  0  0  0  0  0  1  1  0  0  0  1  0  
0  1  1  0  1  3  0  0  0  0  0  1  0  1  0  0  0  0  1  
0  0  0  0  1  0  3  0  0  0  0  0  1  0  0  0  0  1  0  
0  0  0  1  0  0  0  3  0  0  1  0  0  0  0  0  0  0  0  
0  0  1  1  0  0  0  0  3  0  0  1  0  0  0  0  0  0  0  
1  0  0  1  0  0  0  0  0  3  0  0  0  0  0  1  0  0  0  
0  0  0  1  0  0  0  1  0  0  1  0  0  0  0  0  0  0  0  
0  0  1  0  0  1  0  0  1  0  0  2  0  0  0  0  0  0  0  
0  0  0  0  1  0  1  0  0  0  0  0  1  1  0  0  0  0  0  
0  0  0  0  1  1  0  0  0  0  0  0  1  4  0  0  0  0  0  
0  0  0  1  0  0  0  0  0  0  0  0  0  0  4  0  0  0  0  
1  0  0  1  0  0  0  0  0  1  0  0  0  0  0  4  1  0  0  
1  0  0  0  0  0  0  0  0  0  0  0  0  0  0  1  3  0  0  
0  0  0  0  1  0  1  0  0  0  0  0  0  0  0  0  0  0  0  
0  0  0  0  0  1  0  0  0  0  0  0  0  0  0  0  0  0  0  
Printing Adjacency Matrix 
1  0  0  1  0  0  0  0  0  1  0  0  0  0  0  1  1  0  0  
0  1  0  1  1  1  0  0  0  0  0  0  0  0  0  0  0  0  0  
0  0  1  1  0  1  0  0  1  0  0  1  0  0  0  0  0  0  0  
1  1  1  2  0  0  0  1  1  1  1  0  0  0  1  1  0  0  0  
0  1  0  0  2  1  1  0  0  0  0  0  1  1  0  0  0  1  0  
0  1  1  0  1  3  0  0  0  0  0  1  0  1  0  0  0  0  1  
0  0  0  0  1  0  3  0  0  0  0  0  1  0  0  0  0  1  0  
0  0  0  1  0  0  0  3  0  0  1  0  0  0  0  0  0  0  0  
0  0  1  1  0  0  0  0  3  0  0  1  0  0  0  0  0  0  0  
1  0  0  1  0  0  0  0  0  3  0  0  0  0  0  1  0  0  0  
0  0  0  1  0  0  0  1  0  0  1  0  0  0  0  0  0  0  0  
0  0  1  0  0  1  0  0  1  0  0  2  0  0  0  0  0  0  0  
0  0  0  0  1  0  1  0  0  0  0  0  1  1  0  0  0  0  0  
0  0  0  0  1  1  0  0  0  0  0  0  1  4  0  0  0  0  0  
0  0  0  1  0  0  0  0  0  0  0  0  0  0  4  0  0  0  0  
1  0  0  1  0  0  0  0  0  1  0  0  0  0  0  4  1  0  0  
1  0  0  0  0  0  0  0  0  0  0  0  0  0  0  1  3  0  0  
0  0  0  0  1  0  1  0  0  0  0  0  0  0  0  0  0  4  0  
0  0  0  0  0  1  0  0  0  0  0  0  0  0  0  0  0  0  0  


****************Final Print******************
The total number of colors used were 4
Printing Adjacency Matrix 
1  0  0  1  0  0  0  0  0  1  0  0  0  0  0  1  1  0  0  
0  1  0  1  1  1  0  0  0  0  0  0  0  0  0  0  0  0  0  
0  0  1  1  0  1  0  0  1  0  0  1  0  0  0  0  0  0  0  
1  1  1  2  0  0  0  1  1  1  1  0  0  0  1  1  0  0  0  
0  1  0  0  2  1  1  0  0  0  0  0  1  1  0  0  0  1  0  
0  1  1  0  1  3  0  0  0  0  0  1  0  1  0  0  0  0  1  
0  0  0  0  1  0  3  0  0  0  0  0  1  0  0  0  0  1  0  
0  0  0  1  0  0  0  3  0  0  1  0  0  0  0  0  0  0  0  
0  0  1  1  0  0  0  0  3  0  0  1  0  0  0  0  0  0  0  
1  0  0  1  0  0  0  0  0  3  0  0  0  0  0  1  0  0  0  
0  0  0  1  0  0  0  1  0  0  1  0  0  0  0  0  0  0  0  
0  0  1  0  0  1  0  0  1  0  0  2  0  0  0  0  0  0  0  
0  0  0  0  1  0  1  0  0  0  0  0  1  1  0  0  0  0  0  
0  0  0  0  1  1  0  0  0  0  0  0  1  4  0  0  0  0  0  
0  0  0  1  0  0  0  0  0  0  0  0  0  0  4  0  0  0  0  
1  0  0  1  0  0  0  0  0  1  0  0  0  0  0  4  1  0  0  
1  0  0  0  0  0  0  0  0  0  0  0  0  0  0  1  3  0  0  
0  0  0  0  1  0  1  0  0  0  0  0  0  0  0  0  0  4  0  
0  0  0  0  0  1  0  0  0  0  0  0  0  0  0  0  0  0  4  
Node	Color
1		1
2		1
3		1
4		2
5		2
6		3
7		3
8		3
9		3
10		3
11		1
12		2
13		1
14		4
15		4
16		4
17		3
18		4
19		4
